n = 21;
k = 3;
roles = [
{d, f},
{m, g},
{d, f},
{f, m},
{g, d},
{m, f},
{d, f},
{m, f},
{d, g},
{g, m},
{g, d},
{m, g},
{d, g},
{f, d},
{g, f},
{m, d},
{f, g},
{g, d},
{g, d},
{g, d},
{f, m}
];
num_pairs = 2;
player1 = [4, 1];
player2 = [21, 5];
